&CONTROL
  calculation = 'bands'
  restart_mode = 'from_scratch'
  pseudo_dir = '/mnt/home/ageorgescu/pseudo/'  
  prefix = 'bulknno'
  verbosity = 'high'
 outdir='./scratch'
 wfcdir='./scratch'
/   
&SYSTEM
  ibrav = 0
  nat = 3
  ntyp = 2
  ecutwfc = 55.0    
  ecutrho = 400.0   
  occupations = 'smearing'
  smearing = 'gauss' 
  degauss = 0.004
  nspin = 1
  lda_plus_u = .true.
  Hubbard_U(1) = 1.0d-10
  U_projection_type='ortho-atomic'
/   
&ELECTRONS
  mixing_beta=0.4
  startingwfc = 'random'
  diagonalization = 'david'
  electron_maxstep = 500
/
&IONS
/
&CELL
/   
ATOMIC_SPECIES
Ti 51.9961  Ti.alex.UPF
Cl 126.90447 Cl.alex.UPF

CELL_PARAMETERS angstrom
3.43000000000000 0.00000000000000 0.00000000000000
-1.71500000000000 2.97046713498063 0.00000000000000
0.00000000000000 0.00000000000000 6.10000000000000

ATOMIC_POSITIONS angstrom
Ti 0.0000000000 0.0000000000 0.0000000000
Cl 1.7148285000 0.9900566961 4.5750000000
Cl 0.0001715000 1.9804104389 1.5250000000

K_POINTS crystal
96
0.00000  0.00000  0.00000 1
0.02000  0.00000  0.00000 2
0.04000  0.00000  0.00000 3
0.06000  0.00000  0.00000 4
0.08000  0.00000  0.00000 5
0.10000  0.00000  0.00000 6
0.12000  0.00000  0.00000 7
0.14000  0.00000  0.00000 8
0.16000  0.00000  0.00000 9
0.18000  0.00000  0.00000 10
0.20000  0.00000  0.00000 11
0.22000  0.00000  0.00000 12
0.24000  0.00000  0.00000 13
0.26000  0.00000  0.00000 14
0.28000  0.00000  0.00000 15
0.30000  0.00000  0.00000 16
0.32000  0.00000  0.00000 17
0.34000  0.00000  0.00000 18
0.36000  0.00000  0.00000 19
0.38000  0.00000  0.00000 20
0.40000  0.00000  0.00000 21
0.42000  0.00000  0.00000 22
0.44000  0.00000  0.00000 23
0.46000  0.00000  0.00000 24
0.48000  0.00000  0.00000 25
0.50000  0.00000  0.00000 26
0.50000  0.02000  0.00000 27
0.50000  0.04000  0.00000 28
0.50000  0.06000  0.00000 29
0.50000  0.08000  0.00000 30
0.50000  0.10000  0.00000 31
0.50000  0.12000  0.00000 32
0.50000  0.14000  0.00000 33
0.50000  0.16000  0.00000 34
0.50000  0.18000  0.00000 35
0.50000  0.20000  0.00000 36
0.50000  0.22000  0.00000 37
0.50000  0.24000  0.00000 38
0.50000  0.26000  0.00000 39
0.50000  0.28000  0.00000 40
0.50000  0.30000  0.00000 41
0.50000  0.32000  0.00000 42
0.50000  0.34000  0.00000 43
0.50000  0.36000  0.00000 44
0.50000  0.38000  0.00000 45
0.50000  0.40000  0.00000 46
0.50000  0.42000  0.00000 47
0.50000  0.44000  0.00000 48
0.50000  0.46000  0.00000 49
0.50000  0.48000  0.00000 50
0.50000  0.50000  0.00000 51
0.48571  0.48571  0.00000 52
0.47143  0.47143  0.00000 53
0.45714  0.45714  0.00000 54
0.44286  0.44286  0.00000 55
0.42857  0.42857  0.00000 56
0.41429  0.41429  0.00000 57
0.40000  0.40000  0.00000 58
0.38571  0.38571  0.00000 59
0.37143  0.37143  0.00000 60
0.35714  0.35714  0.00000 61
0.34286  0.34286  0.00000 62
0.32857  0.32857  0.00000 63
0.31429  0.31429  0.00000 64
0.30000  0.30000  0.00000 65
0.28571  0.28571  0.00000 66
0.27143  0.27143  0.00000 67
0.25714  0.25714  0.00000 68
0.24286  0.24286  0.00000 69
0.22857  0.22857  0.00000 70
0.21429  0.21429  0.00000 71
0.20000  0.20000  0.00000 72
0.18571  0.18571  0.00000 73
0.17143  0.17143  0.00000 74
0.15714  0.15714  0.00000 75
0.14286  0.14286  0.00000 76
0.12857  0.12857  0.00000 77
0.11429  0.11429  0.00000 78
0.10000  0.10000  0.00000 79
0.08571  0.08571  0.00000 80
0.07143  0.07143  0.00000 81
0.05714  0.05714  0.00000 82
0.04286  0.04286  0.00000 83
0.02857  0.02857  0.00000 84
0.01429  0.01429  0.00000 85
0.00000  0.00000  0.00000 86
0.00000  0.00000  0.05000 87
0.00000  0.00000  0.10000 88
0.00000  0.00000  0.15000 89
0.00000  0.00000  0.20000 90
0.00000  0.00000  0.25000 91
0.00000  0.00000  0.30000 92
0.00000  0.00000  0.35000 93
0.00000  0.00000  0.40000 94
0.00000  0.00000  0.45000 95
0.00000  0.00000  0.50000 96