!here we exclude all bands up to 2 Op valence bands around 4 eV
exclude_bands : 1-12,18-30
num_wann        =  5
num_iter        = 10000
NUM_BANDS = 5
!DIS_WIN_MIN = 4.0
!DIS_WIN_MAX = 8.0
!DIS_FROZ_MIN = 5.4
!DIS_FROZ_MAX = 6.2 
DIS_NUM_ITER=300
!SITE_SYMMETRY=.T.

guiding_centres = T
write_hr=T
begin atoms_cart
Ti 0.0000000000 0.0000000000 0.0000000000
Cl 1.7148285000 0.9900566961 4.5750000000
Cl 0.0001715000 1.9804104389 1.5250000000
end atoms_cart

!begin kpoint_path
!G 0.00000  0.00000 0.0000 X 0.50000  0.00000 0.0000
!X 0.50000  0.00000 0.0000 W 0.5 0 0.5
!end kpoint_path
!bands_plot =T
!bands_plot_project=1,2,3,4

!!To plot the WF
wannier_plot = T
wannier_plot_supercell = 3
wannier_plot_list = 1,2,3,4,5
!restart = plot
!fermi_surface_plot = .true.

begin projections
Ti:l=2:z=0.701866514395825,0.405222821028726,-0.585813845250670:x=-0.405222821028726,0.903514445290809,0.139485169349158
end projections

begin unit_cell_cart
angstrom
3.43000000000000 0.00000000000000 0.00000000000000
-1.71500000000000 2.97046713498063 0.00000000000000
0.00000000000000 0.00000000000000 6.10000000000000
end unit_cell_cart


mp_grid : 10 10 10  

begin kpoints
-0.450000000000000	-0.450000000000000	-0.450000000000000
-0.450000000000000	-0.450000000000000	-0.350000000000000
-0.450000000000000	-0.450000000000000	-0.250000000000000
-0.450000000000000	-0.450000000000000	-0.150000000000000
-0.450000000000000	-0.450000000000000	-0.0500000000000000
-0.450000000000000	-0.450000000000000	0.0500000000000000
-0.450000000000000	-0.450000000000000	0.150000000000000
-0.450000000000000	-0.450000000000000	0.250000000000000
-0.450000000000000	-0.450000000000000	0.350000000000000
-0.450000000000000	-0.450000000000000	0.450000000000000
-0.450000000000000	-0.350000000000000	-0.450000000000000
-0.450000000000000	-0.350000000000000	-0.350000000000000
-0.450000000000000	-0.350000000000000	-0.250000000000000
-0.450000000000000	-0.350000000000000	-0.150000000000000
-0.450000000000000	-0.350000000000000	-0.0500000000000000
-0.450000000000000	-0.350000000000000	0.0500000000000000
-0.450000000000000	-0.350000000000000	0.150000000000000
-0.450000000000000	-0.350000000000000	0.250000000000000
-0.450000000000000	-0.350000000000000	0.350000000000000
-0.450000000000000	-0.350000000000000	0.450000000000000
-0.450000000000000	-0.250000000000000	-0.450000000000000
-0.450000000000000	-0.250000000000000	-0.350000000000000
-0.450000000000000	-0.250000000000000	-0.250000000000000
-0.450000000000000	-0.250000000000000	-0.150000000000000
-0.450000000000000	-0.250000000000000	-0.0500000000000000
-0.450000000000000	-0.250000000000000	0.0500000000000000
-0.450000000000000	-0.250000000000000	0.150000000000000
-0.450000000000000	-0.250000000000000	0.250000000000000
-0.450000000000000	-0.250000000000000	0.350000000000000
-0.450000000000000	-0.250000000000000	0.450000000000000
-0.450000000000000	-0.150000000000000	-0.450000000000000
-0.450000000000000	-0.150000000000000	-0.350000000000000
-0.450000000000000	-0.150000000000000	-0.250000000000000
-0.450000000000000	-0.150000000000000	-0.150000000000000
-0.450000000000000	-0.150000000000000	-0.0500000000000000
-0.450000000000000	-0.150000000000000	0.0500000000000000
-0.450000000000000	-0.150000000000000	0.150000000000000
-0.450000000000000	-0.150000000000000	0.250000000000000
-0.450000000000000	-0.150000000000000	0.350000000000000
-0.450000000000000	-0.150000000000000	0.450000000000000
-0.450000000000000	-0.0500000000000000	-0.450000000000000
-0.450000000000000	-0.0500000000000000	-0.350000000000000
-0.450000000000000	-0.0500000000000000	-0.250000000000000
-0.450000000000000	-0.0500000000000000	-0.150000000000000
-0.450000000000000	-0.0500000000000000	-0.0500000000000000
-0.450000000000000	-0.0500000000000000	0.0500000000000000
-0.450000000000000	-0.0500000000000000	0.150000000000000
-0.450000000000000	-0.0500000000000000	0.250000000000000
-0.450000000000000	-0.0500000000000000	0.350000000000000
-0.450000000000000	-0.0500000000000000	0.450000000000000
-0.450000000000000	0.0500000000000000	-0.450000000000000
-0.450000000000000	0.0500000000000000	-0.350000000000000
-0.450000000000000	0.0500000000000000	-0.250000000000000
-0.450000000000000	0.0500000000000000	-0.150000000000000
-0.450000000000000	0.0500000000000000	-0.0500000000000000
-0.450000000000000	0.0500000000000000	0.0500000000000000
-0.450000000000000	0.0500000000000000	0.150000000000000
-0.450000000000000	0.0500000000000000	0.250000000000000
-0.450000000000000	0.0500000000000000	0.350000000000000
-0.450000000000000	0.0500000000000000	0.450000000000000
-0.450000000000000	0.150000000000000	-0.450000000000000
-0.450000000000000	0.150000000000000	-0.350000000000000
-0.450000000000000	0.150000000000000	-0.250000000000000
-0.450000000000000	0.150000000000000	-0.150000000000000
-0.450000000000000	0.150000000000000	-0.0500000000000000
-0.450000000000000	0.150000000000000	0.0500000000000000
-0.450000000000000	0.150000000000000	0.150000000000000
-0.450000000000000	0.150000000000000	0.250000000000000
-0.450000000000000	0.150000000000000	0.350000000000000
-0.450000000000000	0.150000000000000	0.450000000000000
-0.450000000000000	0.250000000000000	-0.450000000000000
-0.450000000000000	0.250000000000000	-0.350000000000000
-0.450000000000000	0.250000000000000	-0.250000000000000
-0.450000000000000	0.250000000000000	-0.150000000000000
-0.450000000000000	0.250000000000000	-0.0500000000000000
-0.450000000000000	0.250000000000000	0.0500000000000000
-0.450000000000000	0.250000000000000	0.150000000000000
-0.450000000000000	0.250000000000000	0.250000000000000
-0.450000000000000	0.250000000000000	0.350000000000000
-0.450000000000000	0.250000000000000	0.450000000000000
-0.450000000000000	0.350000000000000	-0.450000000000000
-0.450000000000000	0.350000000000000	-0.350000000000000
-0.450000000000000	0.350000000000000	-0.250000000000000
-0.450000000000000	0.350000000000000	-0.150000000000000
-0.450000000000000	0.350000000000000	-0.0500000000000000
-0.450000000000000	0.350000000000000	0.0500000000000000
-0.450000000000000	0.350000000000000	0.150000000000000
-0.450000000000000	0.350000000000000	0.250000000000000
-0.450000000000000	0.350000000000000	0.350000000000000
-0.450000000000000	0.350000000000000	0.450000000000000
-0.450000000000000	0.450000000000000	-0.450000000000000
-0.450000000000000	0.450000000000000	-0.350000000000000
-0.450000000000000	0.450000000000000	-0.250000000000000
-0.450000000000000	0.450000000000000	-0.150000000000000
-0.450000000000000	0.450000000000000	-0.0500000000000000
-0.450000000000000	0.450000000000000	0.0500000000000000
-0.450000000000000	0.450000000000000	0.150000000000000
-0.450000000000000	0.450000000000000	0.250000000000000
-0.450000000000000	0.450000000000000	0.350000000000000
-0.450000000000000	0.450000000000000	0.450000000000000
-0.350000000000000	-0.450000000000000	-0.450000000000000
-0.350000000000000	-0.450000000000000	-0.350000000000000
-0.350000000000000	-0.450000000000000	-0.250000000000000
-0.350000000000000	-0.450000000000000	-0.150000000000000
-0.350000000000000	-0.450000000000000	-0.0500000000000000
-0.350000000000000	-0.450000000000000	0.0500000000000000
-0.350000000000000	-0.450000000000000	0.150000000000000
-0.350000000000000	-0.450000000000000	0.250000000000000
-0.350000000000000	-0.450000000000000	0.350000000000000
-0.350000000000000	-0.450000000000000	0.450000000000000
-0.350000000000000	-0.350000000000000	-0.450000000000000
-0.350000000000000	-0.350000000000000	-0.350000000000000
-0.350000000000000	-0.350000000000000	-0.250000000000000
-0.350000000000000	-0.350000000000000	-0.150000000000000
-0.350000000000000	-0.350000000000000	-0.0500000000000000
-0.350000000000000	-0.350000000000000	0.0500000000000000
-0.350000000000000	-0.350000000000000	0.150000000000000
-0.350000000000000	-0.350000000000000	0.250000000000000
-0.350000000000000	-0.350000000000000	0.350000000000000
-0.350000000000000	-0.350000000000000	0.450000000000000
-0.350000000000000	-0.250000000000000	-0.450000000000000
-0.350000000000000	-0.250000000000000	-0.350000000000000
-0.350000000000000	-0.250000000000000	-0.250000000000000
-0.350000000000000	-0.250000000000000	-0.150000000000000
-0.350000000000000	-0.250000000000000	-0.0500000000000000
-0.350000000000000	-0.250000000000000	0.0500000000000000
-0.350000000000000	-0.250000000000000	0.150000000000000
-0.350000000000000	-0.250000000000000	0.250000000000000
-0.350000000000000	-0.250000000000000	0.350000000000000
-0.350000000000000	-0.250000000000000	0.450000000000000
-0.350000000000000	-0.150000000000000	-0.450000000000000
-0.350000000000000	-0.150000000000000	-0.350000000000000
-0.350000000000000	-0.150000000000000	-0.250000000000000
-0.350000000000000	-0.150000000000000	-0.150000000000000
-0.350000000000000	-0.150000000000000	-0.0500000000000000
-0.350000000000000	-0.150000000000000	0.0500000000000000
-0.350000000000000	-0.150000000000000	0.150000000000000
-0.350000000000000	-0.150000000000000	0.250000000000000
-0.350000000000000	-0.150000000000000	0.350000000000000
-0.350000000000000	-0.150000000000000	0.450000000000000
-0.350000000000000	-0.0500000000000000	-0.450000000000000
-0.350000000000000	-0.0500000000000000	-0.350000000000000
-0.350000000000000	-0.0500000000000000	-0.250000000000000
-0.350000000000000	-0.0500000000000000	-0.150000000000000
-0.350000000000000	-0.0500000000000000	-0.0500000000000000
-0.350000000000000	-0.0500000000000000	0.0500000000000000
-0.350000000000000	-0.0500000000000000	0.150000000000000
-0.350000000000000	-0.0500000000000000	0.250000000000000
-0.350000000000000	-0.0500000000000000	0.350000000000000
-0.350000000000000	-0.0500000000000000	0.450000000000000
-0.350000000000000	0.0500000000000000	-0.450000000000000
-0.350000000000000	0.0500000000000000	-0.350000000000000
-0.350000000000000	0.0500000000000000	-0.250000000000000
-0.350000000000000	0.0500000000000000	-0.150000000000000
-0.350000000000000	0.0500000000000000	-0.0500000000000000
-0.350000000000000	0.0500000000000000	0.0500000000000000
-0.350000000000000	0.0500000000000000	0.150000000000000
-0.350000000000000	0.0500000000000000	0.250000000000000
-0.350000000000000	0.0500000000000000	0.350000000000000
-0.350000000000000	0.0500000000000000	0.450000000000000
-0.350000000000000	0.150000000000000	-0.450000000000000
-0.350000000000000	0.150000000000000	-0.350000000000000
-0.350000000000000	0.150000000000000	-0.250000000000000
-0.350000000000000	0.150000000000000	-0.150000000000000
-0.350000000000000	0.150000000000000	-0.0500000000000000
-0.350000000000000	0.150000000000000	0.0500000000000000
-0.350000000000000	0.150000000000000	0.150000000000000
-0.350000000000000	0.150000000000000	0.250000000000000
-0.350000000000000	0.150000000000000	0.350000000000000
-0.350000000000000	0.150000000000000	0.450000000000000
-0.350000000000000	0.250000000000000	-0.450000000000000
-0.350000000000000	0.250000000000000	-0.350000000000000
-0.350000000000000	0.250000000000000	-0.250000000000000
-0.350000000000000	0.250000000000000	-0.150000000000000
-0.350000000000000	0.250000000000000	-0.0500000000000000
-0.350000000000000	0.250000000000000	0.0500000000000000
-0.350000000000000	0.250000000000000	0.150000000000000
-0.350000000000000	0.250000000000000	0.250000000000000
-0.350000000000000	0.250000000000000	0.350000000000000
-0.350000000000000	0.250000000000000	0.450000000000000
-0.350000000000000	0.350000000000000	-0.450000000000000
-0.350000000000000	0.350000000000000	-0.350000000000000
-0.350000000000000	0.350000000000000	-0.250000000000000
-0.350000000000000	0.350000000000000	-0.150000000000000
-0.350000000000000	0.350000000000000	-0.0500000000000000
-0.350000000000000	0.350000000000000	0.0500000000000000
-0.350000000000000	0.350000000000000	0.150000000000000
-0.350000000000000	0.350000000000000	0.250000000000000
-0.350000000000000	0.350000000000000	0.350000000000000
-0.350000000000000	0.350000000000000	0.450000000000000
-0.350000000000000	0.450000000000000	-0.450000000000000
-0.350000000000000	0.450000000000000	-0.350000000000000
-0.350000000000000	0.450000000000000	-0.250000000000000
-0.350000000000000	0.450000000000000	-0.150000000000000
-0.350000000000000	0.450000000000000	-0.0500000000000000
-0.350000000000000	0.450000000000000	0.0500000000000000
-0.350000000000000	0.450000000000000	0.150000000000000
-0.350000000000000	0.450000000000000	0.250000000000000
-0.350000000000000	0.450000000000000	0.350000000000000
-0.350000000000000	0.450000000000000	0.450000000000000
-0.250000000000000	-0.450000000000000	-0.450000000000000
-0.250000000000000	-0.450000000000000	-0.350000000000000
-0.250000000000000	-0.450000000000000	-0.250000000000000
-0.250000000000000	-0.450000000000000	-0.150000000000000
-0.250000000000000	-0.450000000000000	-0.0500000000000000
-0.250000000000000	-0.450000000000000	0.0500000000000000
-0.250000000000000	-0.450000000000000	0.150000000000000
-0.250000000000000	-0.450000000000000	0.250000000000000
-0.250000000000000	-0.450000000000000	0.350000000000000
-0.250000000000000	-0.450000000000000	0.450000000000000
-0.250000000000000	-0.350000000000000	-0.450000000000000
-0.250000000000000	-0.350000000000000	-0.350000000000000
-0.250000000000000	-0.350000000000000	-0.250000000000000
-0.250000000000000	-0.350000000000000	-0.150000000000000
-0.250000000000000	-0.350000000000000	-0.0500000000000000
-0.250000000000000	-0.350000000000000	0.0500000000000000
-0.250000000000000	-0.350000000000000	0.150000000000000
-0.250000000000000	-0.350000000000000	0.250000000000000
-0.250000000000000	-0.350000000000000	0.350000000000000
-0.250000000000000	-0.350000000000000	0.450000000000000
-0.250000000000000	-0.250000000000000	-0.450000000000000
-0.250000000000000	-0.250000000000000	-0.350000000000000
-0.250000000000000	-0.250000000000000	-0.250000000000000
-0.250000000000000	-0.250000000000000	-0.150000000000000
-0.250000000000000	-0.250000000000000	-0.0500000000000000
-0.250000000000000	-0.250000000000000	0.0500000000000000
-0.250000000000000	-0.250000000000000	0.150000000000000
-0.250000000000000	-0.250000000000000	0.250000000000000
-0.250000000000000	-0.250000000000000	0.350000000000000
-0.250000000000000	-0.250000000000000	0.450000000000000
-0.250000000000000	-0.150000000000000	-0.450000000000000
-0.250000000000000	-0.150000000000000	-0.350000000000000
-0.250000000000000	-0.150000000000000	-0.250000000000000
-0.250000000000000	-0.150000000000000	-0.150000000000000
-0.250000000000000	-0.150000000000000	-0.0500000000000000
-0.250000000000000	-0.150000000000000	0.0500000000000000
-0.250000000000000	-0.150000000000000	0.150000000000000
-0.250000000000000	-0.150000000000000	0.250000000000000
-0.250000000000000	-0.150000000000000	0.350000000000000
-0.250000000000000	-0.150000000000000	0.450000000000000
-0.250000000000000	-0.0500000000000000	-0.450000000000000
-0.250000000000000	-0.0500000000000000	-0.350000000000000
-0.250000000000000	-0.0500000000000000	-0.250000000000000
-0.250000000000000	-0.0500000000000000	-0.150000000000000
-0.250000000000000	-0.0500000000000000	-0.0500000000000000
-0.250000000000000	-0.0500000000000000	0.0500000000000000
-0.250000000000000	-0.0500000000000000	0.150000000000000
-0.250000000000000	-0.0500000000000000	0.250000000000000
-0.250000000000000	-0.0500000000000000	0.350000000000000
-0.250000000000000	-0.0500000000000000	0.450000000000000
-0.250000000000000	0.0500000000000000	-0.450000000000000
-0.250000000000000	0.0500000000000000	-0.350000000000000
-0.250000000000000	0.0500000000000000	-0.250000000000000
-0.250000000000000	0.0500000000000000	-0.150000000000000
-0.250000000000000	0.0500000000000000	-0.0500000000000000
-0.250000000000000	0.0500000000000000	0.0500000000000000
-0.250000000000000	0.0500000000000000	0.150000000000000
-0.250000000000000	0.0500000000000000	0.250000000000000
-0.250000000000000	0.0500000000000000	0.350000000000000
-0.250000000000000	0.0500000000000000	0.450000000000000
-0.250000000000000	0.150000000000000	-0.450000000000000
-0.250000000000000	0.150000000000000	-0.350000000000000
-0.250000000000000	0.150000000000000	-0.250000000000000
-0.250000000000000	0.150000000000000	-0.150000000000000
-0.250000000000000	0.150000000000000	-0.0500000000000000
-0.250000000000000	0.150000000000000	0.0500000000000000
-0.250000000000000	0.150000000000000	0.150000000000000
-0.250000000000000	0.150000000000000	0.250000000000000
-0.250000000000000	0.150000000000000	0.350000000000000
-0.250000000000000	0.150000000000000	0.450000000000000
-0.250000000000000	0.250000000000000	-0.450000000000000
-0.250000000000000	0.250000000000000	-0.350000000000000
-0.250000000000000	0.250000000000000	-0.250000000000000
-0.250000000000000	0.250000000000000	-0.150000000000000
-0.250000000000000	0.250000000000000	-0.0500000000000000
-0.250000000000000	0.250000000000000	0.0500000000000000
-0.250000000000000	0.250000000000000	0.150000000000000
-0.250000000000000	0.250000000000000	0.250000000000000
-0.250000000000000	0.250000000000000	0.350000000000000
-0.250000000000000	0.250000000000000	0.450000000000000
-0.250000000000000	0.350000000000000	-0.450000000000000
-0.250000000000000	0.350000000000000	-0.350000000000000
-0.250000000000000	0.350000000000000	-0.250000000000000
-0.250000000000000	0.350000000000000	-0.150000000000000
-0.250000000000000	0.350000000000000	-0.0500000000000000
-0.250000000000000	0.350000000000000	0.0500000000000000
-0.250000000000000	0.350000000000000	0.150000000000000
-0.250000000000000	0.350000000000000	0.250000000000000
-0.250000000000000	0.350000000000000	0.350000000000000
-0.250000000000000	0.350000000000000	0.450000000000000
-0.250000000000000	0.450000000000000	-0.450000000000000
-0.250000000000000	0.450000000000000	-0.350000000000000
-0.250000000000000	0.450000000000000	-0.250000000000000
-0.250000000000000	0.450000000000000	-0.150000000000000
-0.250000000000000	0.450000000000000	-0.0500000000000000
-0.250000000000000	0.450000000000000	0.0500000000000000
-0.250000000000000	0.450000000000000	0.150000000000000
-0.250000000000000	0.450000000000000	0.250000000000000
-0.250000000000000	0.450000000000000	0.350000000000000
-0.250000000000000	0.450000000000000	0.450000000000000
-0.150000000000000	-0.450000000000000	-0.450000000000000
-0.150000000000000	-0.450000000000000	-0.350000000000000
-0.150000000000000	-0.450000000000000	-0.250000000000000
-0.150000000000000	-0.450000000000000	-0.150000000000000
-0.150000000000000	-0.450000000000000	-0.0500000000000000
-0.150000000000000	-0.450000000000000	0.0500000000000000
-0.150000000000000	-0.450000000000000	0.150000000000000
-0.150000000000000	-0.450000000000000	0.250000000000000
-0.150000000000000	-0.450000000000000	0.350000000000000
-0.150000000000000	-0.450000000000000	0.450000000000000
-0.150000000000000	-0.350000000000000	-0.450000000000000
-0.150000000000000	-0.350000000000000	-0.350000000000000
-0.150000000000000	-0.350000000000000	-0.250000000000000
-0.150000000000000	-0.350000000000000	-0.150000000000000
-0.150000000000000	-0.350000000000000	-0.0500000000000000
-0.150000000000000	-0.350000000000000	0.0500000000000000
-0.150000000000000	-0.350000000000000	0.150000000000000
-0.150000000000000	-0.350000000000000	0.250000000000000
-0.150000000000000	-0.350000000000000	0.350000000000000
-0.150000000000000	-0.350000000000000	0.450000000000000
-0.150000000000000	-0.250000000000000	-0.450000000000000
-0.150000000000000	-0.250000000000000	-0.350000000000000
-0.150000000000000	-0.250000000000000	-0.250000000000000
-0.150000000000000	-0.250000000000000	-0.150000000000000
-0.150000000000000	-0.250000000000000	-0.0500000000000000
-0.150000000000000	-0.250000000000000	0.0500000000000000
-0.150000000000000	-0.250000000000000	0.150000000000000
-0.150000000000000	-0.250000000000000	0.250000000000000
-0.150000000000000	-0.250000000000000	0.350000000000000
-0.150000000000000	-0.250000000000000	0.450000000000000
-0.150000000000000	-0.150000000000000	-0.450000000000000
-0.150000000000000	-0.150000000000000	-0.350000000000000
-0.150000000000000	-0.150000000000000	-0.250000000000000
-0.150000000000000	-0.150000000000000	-0.150000000000000
-0.150000000000000	-0.150000000000000	-0.0500000000000000
-0.150000000000000	-0.150000000000000	0.0500000000000000
-0.150000000000000	-0.150000000000000	0.150000000000000
-0.150000000000000	-0.150000000000000	0.250000000000000
-0.150000000000000	-0.150000000000000	0.350000000000000
-0.150000000000000	-0.150000000000000	0.450000000000000
-0.150000000000000	-0.0500000000000000	-0.450000000000000
-0.150000000000000	-0.0500000000000000	-0.350000000000000
-0.150000000000000	-0.0500000000000000	-0.250000000000000
-0.150000000000000	-0.0500000000000000	-0.150000000000000
-0.150000000000000	-0.0500000000000000	-0.0500000000000000
-0.150000000000000	-0.0500000000000000	0.0500000000000000
-0.150000000000000	-0.0500000000000000	0.150000000000000
-0.150000000000000	-0.0500000000000000	0.250000000000000
-0.150000000000000	-0.0500000000000000	0.350000000000000
-0.150000000000000	-0.0500000000000000	0.450000000000000
-0.150000000000000	0.0500000000000000	-0.450000000000000
-0.150000000000000	0.0500000000000000	-0.350000000000000
-0.150000000000000	0.0500000000000000	-0.250000000000000
-0.150000000000000	0.0500000000000000	-0.150000000000000
-0.150000000000000	0.0500000000000000	-0.0500000000000000
-0.150000000000000	0.0500000000000000	0.0500000000000000
-0.150000000000000	0.0500000000000000	0.150000000000000
-0.150000000000000	0.0500000000000000	0.250000000000000
-0.150000000000000	0.0500000000000000	0.350000000000000
-0.150000000000000	0.0500000000000000	0.450000000000000
-0.150000000000000	0.150000000000000	-0.450000000000000
-0.150000000000000	0.150000000000000	-0.350000000000000
-0.150000000000000	0.150000000000000	-0.250000000000000
-0.150000000000000	0.150000000000000	-0.150000000000000
-0.150000000000000	0.150000000000000	-0.0500000000000000
-0.150000000000000	0.150000000000000	0.0500000000000000
-0.150000000000000	0.150000000000000	0.150000000000000
-0.150000000000000	0.150000000000000	0.250000000000000
-0.150000000000000	0.150000000000000	0.350000000000000
-0.150000000000000	0.150000000000000	0.450000000000000
-0.150000000000000	0.250000000000000	-0.450000000000000
-0.150000000000000	0.250000000000000	-0.350000000000000
-0.150000000000000	0.250000000000000	-0.250000000000000
-0.150000000000000	0.250000000000000	-0.150000000000000
-0.150000000000000	0.250000000000000	-0.0500000000000000
-0.150000000000000	0.250000000000000	0.0500000000000000
-0.150000000000000	0.250000000000000	0.150000000000000
-0.150000000000000	0.250000000000000	0.250000000000000
-0.150000000000000	0.250000000000000	0.350000000000000
-0.150000000000000	0.250000000000000	0.450000000000000
-0.150000000000000	0.350000000000000	-0.450000000000000
-0.150000000000000	0.350000000000000	-0.350000000000000
-0.150000000000000	0.350000000000000	-0.250000000000000
-0.150000000000000	0.350000000000000	-0.150000000000000
-0.150000000000000	0.350000000000000	-0.0500000000000000
-0.150000000000000	0.350000000000000	0.0500000000000000
-0.150000000000000	0.350000000000000	0.150000000000000
-0.150000000000000	0.350000000000000	0.250000000000000
-0.150000000000000	0.350000000000000	0.350000000000000
-0.150000000000000	0.350000000000000	0.450000000000000
-0.150000000000000	0.450000000000000	-0.450000000000000
-0.150000000000000	0.450000000000000	-0.350000000000000
-0.150000000000000	0.450000000000000	-0.250000000000000
-0.150000000000000	0.450000000000000	-0.150000000000000
-0.150000000000000	0.450000000000000	-0.0500000000000000
-0.150000000000000	0.450000000000000	0.0500000000000000
-0.150000000000000	0.450000000000000	0.150000000000000
-0.150000000000000	0.450000000000000	0.250000000000000
-0.150000000000000	0.450000000000000	0.350000000000000
-0.150000000000000	0.450000000000000	0.450000000000000
-0.0500000000000000	-0.450000000000000	-0.450000000000000
-0.0500000000000000	-0.450000000000000	-0.350000000000000
-0.0500000000000000	-0.450000000000000	-0.250000000000000
-0.0500000000000000	-0.450000000000000	-0.150000000000000
-0.0500000000000000	-0.450000000000000	-0.0500000000000000
-0.0500000000000000	-0.450000000000000	0.0500000000000000
-0.0500000000000000	-0.450000000000000	0.150000000000000
-0.0500000000000000	-0.450000000000000	0.250000000000000
-0.0500000000000000	-0.450000000000000	0.350000000000000
-0.0500000000000000	-0.450000000000000	0.450000000000000
-0.0500000000000000	-0.350000000000000	-0.450000000000000
-0.0500000000000000	-0.350000000000000	-0.350000000000000
-0.0500000000000000	-0.350000000000000	-0.250000000000000
-0.0500000000000000	-0.350000000000000	-0.150000000000000
-0.0500000000000000	-0.350000000000000	-0.0500000000000000
-0.0500000000000000	-0.350000000000000	0.0500000000000000
-0.0500000000000000	-0.350000000000000	0.150000000000000
-0.0500000000000000	-0.350000000000000	0.250000000000000
-0.0500000000000000	-0.350000000000000	0.350000000000000
-0.0500000000000000	-0.350000000000000	0.450000000000000
-0.0500000000000000	-0.250000000000000	-0.450000000000000
-0.0500000000000000	-0.250000000000000	-0.350000000000000
-0.0500000000000000	-0.250000000000000	-0.250000000000000
-0.0500000000000000	-0.250000000000000	-0.150000000000000
-0.0500000000000000	-0.250000000000000	-0.0500000000000000
-0.0500000000000000	-0.250000000000000	0.0500000000000000
-0.0500000000000000	-0.250000000000000	0.150000000000000
-0.0500000000000000	-0.250000000000000	0.250000000000000
-0.0500000000000000	-0.250000000000000	0.350000000000000
-0.0500000000000000	-0.250000000000000	0.450000000000000
-0.0500000000000000	-0.150000000000000	-0.450000000000000
-0.0500000000000000	-0.150000000000000	-0.350000000000000
-0.0500000000000000	-0.150000000000000	-0.250000000000000
-0.0500000000000000	-0.150000000000000	-0.150000000000000
-0.0500000000000000	-0.150000000000000	-0.0500000000000000
-0.0500000000000000	-0.150000000000000	0.0500000000000000
-0.0500000000000000	-0.150000000000000	0.150000000000000
-0.0500000000000000	-0.150000000000000	0.250000000000000
-0.0500000000000000	-0.150000000000000	0.350000000000000
-0.0500000000000000	-0.150000000000000	0.450000000000000
-0.0500000000000000	-0.0500000000000000	-0.450000000000000
-0.0500000000000000	-0.0500000000000000	-0.350000000000000
-0.0500000000000000	-0.0500000000000000	-0.250000000000000
-0.0500000000000000	-0.0500000000000000	-0.150000000000000
-0.0500000000000000	-0.0500000000000000	-0.0500000000000000
-0.0500000000000000	-0.0500000000000000	0.0500000000000000
-0.0500000000000000	-0.0500000000000000	0.150000000000000
-0.0500000000000000	-0.0500000000000000	0.250000000000000
-0.0500000000000000	-0.0500000000000000	0.350000000000000
-0.0500000000000000	-0.0500000000000000	0.450000000000000
-0.0500000000000000	0.0500000000000000	-0.450000000000000
-0.0500000000000000	0.0500000000000000	-0.350000000000000
-0.0500000000000000	0.0500000000000000	-0.250000000000000
-0.0500000000000000	0.0500000000000000	-0.150000000000000
-0.0500000000000000	0.0500000000000000	-0.0500000000000000
-0.0500000000000000	0.0500000000000000	0.0500000000000000
-0.0500000000000000	0.0500000000000000	0.150000000000000
-0.0500000000000000	0.0500000000000000	0.250000000000000
-0.0500000000000000	0.0500000000000000	0.350000000000000
-0.0500000000000000	0.0500000000000000	0.450000000000000
-0.0500000000000000	0.150000000000000	-0.450000000000000
-0.0500000000000000	0.150000000000000	-0.350000000000000
-0.0500000000000000	0.150000000000000	-0.250000000000000
-0.0500000000000000	0.150000000000000	-0.150000000000000
-0.0500000000000000	0.150000000000000	-0.0500000000000000
-0.0500000000000000	0.150000000000000	0.0500000000000000
-0.0500000000000000	0.150000000000000	0.150000000000000
-0.0500000000000000	0.150000000000000	0.250000000000000
-0.0500000000000000	0.150000000000000	0.350000000000000
-0.0500000000000000	0.150000000000000	0.450000000000000
-0.0500000000000000	0.250000000000000	-0.450000000000000
-0.0500000000000000	0.250000000000000	-0.350000000000000
-0.0500000000000000	0.250000000000000	-0.250000000000000
-0.0500000000000000	0.250000000000000	-0.150000000000000
-0.0500000000000000	0.250000000000000	-0.0500000000000000
-0.0500000000000000	0.250000000000000	0.0500000000000000
-0.0500000000000000	0.250000000000000	0.150000000000000
-0.0500000000000000	0.250000000000000	0.250000000000000
-0.0500000000000000	0.250000000000000	0.350000000000000
-0.0500000000000000	0.250000000000000	0.450000000000000
-0.0500000000000000	0.350000000000000	-0.450000000000000
-0.0500000000000000	0.350000000000000	-0.350000000000000
-0.0500000000000000	0.350000000000000	-0.250000000000000
-0.0500000000000000	0.350000000000000	-0.150000000000000
-0.0500000000000000	0.350000000000000	-0.0500000000000000
-0.0500000000000000	0.350000000000000	0.0500000000000000
-0.0500000000000000	0.350000000000000	0.150000000000000
-0.0500000000000000	0.350000000000000	0.250000000000000
-0.0500000000000000	0.350000000000000	0.350000000000000
-0.0500000000000000	0.350000000000000	0.450000000000000
-0.0500000000000000	0.450000000000000	-0.450000000000000
-0.0500000000000000	0.450000000000000	-0.350000000000000
-0.0500000000000000	0.450000000000000	-0.250000000000000
-0.0500000000000000	0.450000000000000	-0.150000000000000
-0.0500000000000000	0.450000000000000	-0.0500000000000000
-0.0500000000000000	0.450000000000000	0.0500000000000000
-0.0500000000000000	0.450000000000000	0.150000000000000
-0.0500000000000000	0.450000000000000	0.250000000000000
-0.0500000000000000	0.450000000000000	0.350000000000000
-0.0500000000000000	0.450000000000000	0.450000000000000
0.0500000000000000	-0.450000000000000	-0.450000000000000
0.0500000000000000	-0.450000000000000	-0.350000000000000
0.0500000000000000	-0.450000000000000	-0.250000000000000
0.0500000000000000	-0.450000000000000	-0.150000000000000
0.0500000000000000	-0.450000000000000	-0.0500000000000000
0.0500000000000000	-0.450000000000000	0.0500000000000000
0.0500000000000000	-0.450000000000000	0.150000000000000
0.0500000000000000	-0.450000000000000	0.250000000000000
0.0500000000000000	-0.450000000000000	0.350000000000000