&CONTROL
  calculation = 'nscf'
  restart_mode = 'from_scratch'
  pseudo_dir = '/mnt/home/ageorgescu/pseudo/'  
  prefix = 'bulknno'
  verbosity = 'high'
 outdir='./scratch'
 wfcdir='./scratch'
/   
&SYSTEM
  nbnd=30
  ibrav = 0
  nat = 3
  ntyp = 2
  ecutwfc = 55.0    
  ecutrho = 400.0   
  occupations = 'smearing'
  smearing = 'gauss' 
  degauss = 0.004
  nspin = 1
  lda_plus_u = .true.
  Hubbard_U(1) = 1.0d-10
  nosym=.true.
  noinv=.true.
/   
&ELECTRONS
  mixing_beta=0.4
  startingwfc = 'random'
  diagonalization = 'david'
  electron_maxstep = 500
/
&IONS
/
&CELL
/   
ATOMIC_SPECIES
Ti 51.9961  Ti.alex.UPF
Cl 126.90447 Cl.alex.UPF

CELL_PARAMETERS angstrom
3.43000000000000 0.00000000000000 0.00000000000000
-1.71500000000000 2.97046713498063 0.00000000000000
0.00000000000000 0.00000000000000 6.10000000000000

ATOMIC_POSITIONS angstrom
Ti 0.0000000000 0.0000000000 0.0000000000
Cl 1.7148285000 0.9900566961 4.5750000000
Cl 0.0001715000 1.9804104389 1.5250000000

K_POINTS crystal
1000
  -0.4500   -0.4500   -0.4500    0.0010
   -0.4500   -0.4500   -0.3500    0.0010
   -0.4500   -0.4500   -0.2500    0.0010
   -0.4500   -0.4500   -0.1500    0.0010
   -0.4500   -0.4500   -0.0500    0.0010
   -0.4500   -0.4500    0.0500    0.0010
   -0.4500   -0.4500    0.1500    0.0010
   -0.4500   -0.4500    0.2500    0.0010
   -0.4500   -0.4500    0.3500    0.0010
   -0.4500   -0.4500    0.4500    0.0010
   -0.4500   -0.3500   -0.4500    0.0010
   -0.4500   -0.3500   -0.3500    0.0010
   -0.4500   -0.3500   -0.2500    0.0010
   -0.4500   -0.3500   -0.1500    0.0010
   -0.4500   -0.3500   -0.0500    0.0010
   -0.4500   -0.3500    0.0500    0.0010
   -0.4500   -0.3500    0.1500    0.0010
   -0.4500   -0.3500    0.2500    0.0010
   -0.4500   -0.3500    0.3500    0.0010
   -0.4500   -0.3500    0.4500    0.0010
   -0.4500   -0.2500   -0.4500    0.0010
   -0.4500   -0.2500   -0.3500    0.0010
   -0.4500   -0.2500   -0.2500    0.0010
   -0.4500   -0.2500   -0.1500    0.0010
   -0.4500   -0.2500   -0.0500    0.0010
   -0.4500   -0.2500    0.0500    0.0010
   -0.4500   -0.2500    0.1500    0.0010
   -0.4500   -0.2500    0.2500    0.0010
   -0.4500   -0.2500    0.3500    0.0010
   -0.4500   -0.2500    0.4500    0.0010
   -0.4500   -0.1500   -0.4500    0.0010
   -0.4500   -0.1500   -0.3500    0.0010
   -0.4500   -0.1500   -0.2500    0.0010
   -0.4500   -0.1500   -0.1500    0.0010
   -0.4500   -0.1500   -0.0500    0.0010
   -0.4500   -0.1500    0.0500    0.0010
   -0.4500   -0.1500    0.1500    0.0010
   -0.4500   -0.1500    0.2500    0.0010
   -0.4500   -0.1500    0.3500    0.0010
   -0.4500   -0.1500    0.4500    0.0010
   -0.4500   -0.0500   -0.4500    0.0010
   -0.4500   -0.0500   -0.3500    0.0010
   -0.4500   -0.0500   -0.2500    0.0010
   -0.4500   -0.0500   -0.1500    0.0010
   -0.4500   -0.0500   -0.0500    0.0010
   -0.4500   -0.0500    0.0500    0.0010
   -0.4500   -0.0500    0.1500    0.0010
   -0.4500   -0.0500    0.2500    0.0010
   -0.4500   -0.0500    0.3500    0.0010
   -0.4500   -0.0500    0.4500    0.0010
   -0.4500    0.0500   -0.4500    0.0010
   -0.4500    0.0500   -0.3500    0.0010
   -0.4500    0.0500   -0.2500    0.0010
   -0.4500    0.0500   -0.1500    0.0010
   -0.4500    0.0500   -0.0500    0.0010
   -0.4500    0.0500    0.0500    0.0010
   -0.4500    0.0500    0.1500    0.0010
   -0.4500    0.0500    0.2500    0.0010
   -0.4500    0.0500    0.3500    0.0010
   -0.4500    0.0500    0.4500    0.0010
   -0.4500    0.1500   -0.4500    0.0010
   -0.4500    0.1500   -0.3500    0.0010
   -0.4500    0.1500   -0.2500    0.0010
   -0.4500    0.1500   -0.1500    0.0010
   -0.4500    0.1500   -0.0500    0.0010
   -0.4500    0.1500    0.0500    0.0010
   -0.4500    0.1500    0.1500    0.0010
   -0.4500    0.1500    0.2500    0.0010
   -0.4500    0.1500    0.3500    0.0010
   -0.4500    0.1500    0.4500    0.0010
   -0.4500    0.2500   -0.4500    0.0010
   -0.4500    0.2500   -0.3500    0.0010
   -0.4500    0.2500   -0.2500    0.0010
   -0.4500    0.2500   -0.1500    0.0010
   -0.4500    0.2500   -0.0500    0.0010
   -0.4500    0.2500    0.0500    0.0010
   -0.4500    0.2500    0.1500    0.0010
   -0.4500    0.2500    0.2500    0.0010
   -0.4500    0.2500    0.3500    0.0010
   -0.4500    0.2500    0.4500    0.0010
   -0.4500    0.3500   -0.4500    0.0010
   -0.4500    0.3500   -0.3500    0.0010
   -0.4500    0.3500   -0.2500    0.0010
   -0.4500    0.3500   -0.1500    0.0010
   -0.4500    0.3500   -0.0500    0.0010
   -0.4500    0.3500    0.0500    0.0010
   -0.4500    0.3500    0.1500    0.0010
   -0.4500    0.3500    0.2500    0.0010
   -0.4500    0.3500    0.3500    0.0010
   -0.4500    0.3500    0.4500    0.0010
   -0.4500    0.4500   -0.4500    0.0010
   -0.4500    0.4500   -0.3500    0.0010
   -0.4500    0.4500   -0.2500    0.0010
   -0.4500    0.4500   -0.1500    0.0010
   -0.4500    0.4500   -0.0500    0.0010
   -0.4500    0.4500    0.0500    0.0010
   -0.4500    0.4500    0.1500    0.0010
   -0.4500    0.4500    0.2500    0.0010
   -0.4500    0.4500    0.3500    0.0010
   -0.4500    0.4500    0.4500    0.0010
   -0.3500   -0.4500   -0.4500    0.0010
   -0.3500   -0.4500   -0.3500    0.0010
   -0.3500   -0.4500   -0.2500    0.0010
   -0.3500   -0.4500   -0.1500    0.0010
   -0.3500   -0.4500   -0.0500    0.0010
   -0.3500   -0.4500    0.0500    0.0010
   -0.3500   -0.4500    0.1500    0.0010
   -0.3500   -0.4500    0.2500    0.0010
   -0.3500   -0.4500    0.3500    0.0010
   -0.3500   -0.4500    0.4500    0.0010
   -0.3500   -0.3500   -0.4500    0.0010
   -0.3500   -0.3500   -0.3500    0.0010
   -0.3500   -0.3500   -0.2500    0.0010
   -0.3500   -0.3500   -0.1500    0.0010
   -0.3500   -0.3500   -0.0500    0.0010
   -0.3500   -0.3500    0.0500    0.0010
   -0.3500   -0.3500    0.1500    0.0010
   -0.3500   -0.3500    0.2500    0.0010
   -0.3500   -0.3500    0.3500    0.0010
   -0.3500   -0.3500    0.4500    0.0010
   -0.3500   -0.2500   -0.4500    0.0010
   -0.3500   -0.2500   -0.3500    0.0010
   -0.3500   -0.2500   -0.2500    0.0010
   -0.3500   -0.2500   -0.1500    0.0010
   -0.3500   -0.2500   -0.0500    0.0010
   -0.3500   -0.2500    0.0500    0.0010
   -0.3500   -0.2500    0.1500    0.0010
   -0.3500   -0.2500    0.2500    0.0010
   -0.3500   -0.2500    0.3500    0.0010
   -0.3500   -0.2500    0.4500    0.0010
   -0.3500   -0.1500   -0.4500    0.0010
   -0.3500   -0.1500   -0.3500    0.0010
   -0.3500   -0.1500   -0.2500    0.0010
   -0.3500   -0.1500   -0.1500    0.0010
   -0.3500   -0.1500   -0.0500    0.0010
   -0.3500   -0.1500    0.0500    0.0010
   -0.3500   -0.1500    0.1500    0.0010
   -0.3500   -0.1500    0.2500    0.0010
   -0.3500   -0.1500    0.3500    0.0010
   -0.3500   -0.1500    0.4500    0.0010
   -0.3500   -0.0500   -0.4500    0.0010
   -0.3500   -0.0500   -0.3500    0.0010
   -0.3500   -0.0500   -0.2500    0.0010
   -0.3500   -0.0500   -0.1500    0.0010
   -0.3500   -0.0500   -0.0500    0.0010
   -0.3500   -0.0500    0.0500    0.0010
   -0.3500   -0.0500    0.1500    0.0010
   -0.3500   -0.0500    0.2500    0.0010
   -0.3500   -0.0500    0.3500    0.0010
   -0.3500   -0.0500    0.4500    0.0010
   -0.3500    0.0500   -0.4500    0.0010
   -0.3500    0.0500   -0.3500    0.0010
   -0.3500    0.0500   -0.2500    0.0010
   -0.3500    0.0500   -0.1500    0.0010
   -0.3500    0.0500   -0.0500    0.0010
   -0.3500    0.0500    0.0500    0.0010
   -0.3500    0.0500    0.1500    0.0010
   -0.3500    0.0500    0.2500    0.0010
   -0.3500    0.0500    0.3500    0.0010
   -0.3500    0.0500    0.4500    0.0010
   -0.3500    0.1500   -0.4500    0.0010
   -0.3500    0.1500   -0.3500    0.0010
   -0.3500    0.1500   -0.2500    0.0010
   -0.3500    0.1500   -0.1500    0.0010
   -0.3500    0.1500   -0.0500    0.0010
   -0.3500    0.1500    0.0500    0.0010
   -0.3500    0.1500    0.1500    0.0010
   -0.3500    0.1500    0.2500    0.0010
   -0.3500    0.1500    0.3500    0.0010
   -0.3500    0.1500    0.4500    0.0010
   -0.3500    0.2500   -0.4500    0.0010
   -0.3500    0.2500   -0.3500    0.0010
   -0.3500    0.2500   -0.2500    0.0010
   -0.3500    0.2500   -0.1500    0.0010
   -0.3500    0.2500   -0.0500    0.0010
   -0.3500    0.2500    0.0500    0.0010
   -0.3500    0.2500    0.1500    0.0010
   -0.3500    0.2500    0.2500    0.0010
   -0.3500    0.2500    0.3500    0.0010
   -0.3500    0.2500    0.4500    0.0010
   -0.3500    0.3500   -0.4500    0.0010
   -0.3500    0.3500   -0.3500    0.0010
   -0.3500    0.3500   -0.2500    0.0010
   -0.3500    0.3500   -0.1500    0.0010
   -0.3500    0.3500   -0.0500    0.0010
   -0.3500    0.3500    0.0500    0.0010
   -0.3500    0.3500    0.1500    0.0010
   -0.3500    0.3500    0.2500    0.0010
   -0.3500    0.3500    0.3500    0.0010
   -0.3500    0.3500    0.4500    0.0010
   -0.3500    0.4500   -0.4500    0.0010
   -0.3500    0.4500   -0.3500    0.0010
   -0.3500    0.4500   -0.2500    0.0010
   -0.3500    0.4500   -0.1500    0.0010
   -0.3500    0.4500   -0.0500    0.0010
   -0.3500    0.4500    0.0500    0.0010
   -0.3500    0.4500    0.1500    0.0010
   -0.3500    0.4500    0.2500    0.0010
   -0.3500    0.4500    0.3500    0.0010
   -0.3500    0.4500    0.4500    0.0010
   -0.2500   -0.4500   -0.4500    0.0010
   -0.2500   -0.4500   -0.3500    0.0010
   -0.2500   -0.4500   -0.2500    0.0010
   -0.2500   -0.4500   -0.1500    0.0010
   -0.2500   -0.4500   -0.0500    0.0010
   -0.2500   -0.4500    0.0500    0.0010
   -0.2500   -0.4500    0.1500    0.0010
   -0.2500   -0.4500    0.2500    0.0010
   -0.2500   -0.4500    0.3500    0.0010
   -0.2500   -0.4500    0.4500    0.0010
   -0.2500   -0.3500   -0.4500    0.0010
   -0.2500   -0.3500   -0.3500    0.0010
   -0.2500   -0.3500   -0.2500    0.0010
   -0.2500   -0.3500   -0.1500    0.0010
   -0.2500   -0.3500   -0.0500    0.0010
   -0.2500   -0.3500    0.0500    0.0010
   -0.2500   -0.3500    0.1500    0.0010
   -0.2500   -0.3500    0.2500    0.0010
   -0.2500   -0.3500    0.3500    0.0010
   -0.2500   -0.3500    0.4500    0.0010
   -0.2500   -0.2500   -0.4500    0.0010
   -0.2500   -0.2500   -0.3500    0.0010
   -0.2500   -0.2500   -0.2500    0.0010
   -0.2500   -0.2500   -0.1500    0.0010
   -0.2500   -0.2500   -0.0500    0.0010
   -0.2500   -0.2500    0.0500    0.0010
   -0.2500   -0.2500    0.1500    0.0010
   -0.2500   -0.2500    0.2500    0.0010
   -0.2500   -0.2500    0.3500    0.0010
   -0.2500   -0.2500    0.4500    0.0010
   -0.2500   -0.1500   -0.4500    0.0010
   -0.2500   -0.1500   -0.3500    0.0010
   -0.2500   -0.1500   -0.2500    0.0010
   -0.2500   -0.1500   -0.1500    0.0010
   -0.2500   -0.1500   -0.0500    0.0010
   -0.2500   -0.1500    0.0500    0.0010
   -0.2500   -0.1500    0.1500    0.0010
   -0.2500   -0.1500    0.2500    0.0010
   -0.2500   -0.1500    0.3500    0.0010
   -0.2500   -0.1500    0.4500    0.0010
   -0.2500   -0.0500   -0.4500    0.0010
   -0.2500   -0.0500   -0.3500    0.0010
   -0.2500   -0.0500   -0.2500    0.0010
   -0.2500   -0.0500   -0.1500    0.0010
   -0.2500   -0.0500   -0.0500    0.0010
   -0.2500   -0.0500    0.0500    0.0010
   -0.2500   -0.0500    0.1500    0.0010
   -0.2500   -0.0500    0.2500    0.0010
   -0.2500   -0.0500    0.3500    0.0010
   -0.2500   -0.0500    0.4500    0.0010
   -0.2500    0.0500   -0.4500    0.0010
   -0.2500    0.0500   -0.3500    0.0010
   -0.2500    0.0500   -0.2500    0.0010
   -0.2500    0.0500   -0.1500    0.0010
   -0.2500    0.0500   -0.0500    0.0010
   -0.2500    0.0500    0.0500    0.0010
   -0.2500    0.0500    0.1500    0.0010
   -0.2500    0.0500    0.2500    0.0010
   -0.2500    0.0500    0.3500    0.0010
   -0.2500    0.0500    0.4500    0.0010
   -0.2500    0.1500   -0.4500    0.0010
   -0.2500    0.1500   -0.3500    0.0010
   -0.2500    0.1500   -0.2500    0.0010
   -0.2500    0.1500   -0.1500    0.0010
   -0.2500    0.1500   -0.0500    0.0010
   -0.2500    0.1500    0.0500    0.0010
   -0.2500    0.1500    0.1500    0.0010
   -0.2500    0.1500    0.2500    0.0010
   -0.2500    0.1500    0.3500    0.0010
   -0.2500    0.1500    0.4500    0.0010
   -0.2500    0.2500   -0.4500    0.0010
   -0.2500    0.2500   -0.3500    0.0010
   -0.2500    0.2500   -0.2500    0.0010
   -0.2500    0.2500   -0.1500    0.0010
   -0.2500    0.2500   -0.0500    0.0010
   -0.2500    0.2500    0.0500    0.0010
   -0.2500    0.2500    0.1500    0.0010
   -0.2500    0.2500    0.2500    0.0010
   -0.2500    0.2500    0.3500    0.0010
   -0.2500    0.2500    0.4500    0.0010
   -0.2500    0.3500   -0.4500    0.0010
   -0.2500    0.3500   -0.3500    0.0010
   -0.2500    0.3500   -0.2500    0.0010
   -0.2500    0.3500   -0.1500    0.0010
   -0.2500    0.3500   -0.0500    0.0010
   -0.2500    0.3500    0.0500    0.0010
   -0.2500    0.3500    0.1500    0.0010
   -0.2500    0.3500    0.2500    0.0010
   -0.2500    0.3500    0.3500    0.0010
   -0.2500    0.3500    0.4500    0.0010
   -0.2500    0.4500   -0.4500    0.0010
   -0.2500    0.4500   -0.3500    0.0010
   -0.2500    0.4500   -0.2500    0.0010
   -0.2500    0.4500   -0.1500    0.0010
   -0.2500    0.4500   -0.0500    0.0010
   -0.2500    0.4500    0.0500    0.0010
   -0.2500    0.4500    0.1500    0.0010
   -0.2500    0.4500    0.2500    0.0010
   -0.2500    0.4500    0.3500    0.0010
   -0.2500    0.4500    0.4500    0.0010
   -0.1500   -0.4500   -0.4500    0.0010
   -0.1500   -0.4500   -0.3500    0.0010
   -0.1500   -0.4500   -0.2500    0.0010
   -0.1500   -0.4500   -0.1500    0.0010
   -0.1500   -0.4500   -0.0500    0.0010
   -0.1500   -0.4500    0.0500    0.0010
   -0.1500   -0.4500    0.1500    0.0010
   -0.1500   -0.4500    0.2500    0.0010
   -0.1500   -0.4500    0.3500    0.0010
   -0.1500   -0.4500    0.4500    0.0010
   -0.1500   -0.3500   -0.4500    0.0010
   -0.1500   -0.3500   -0.3500    0.0010
   -0.1500   -0.3500   -0.2500    0.0010
   -0.1500   -0.3500   -0.1500    0.0010
   -0.1500   -0.3500   -0.0500    0.0010
   -0.1500   -0.3500    0.0500    0.0010
   -0.1500   -0.3500    0.1500    0.0010
   -0.1500   -0.3500    0.2500    0.0010
   -0.1500   -0.3500    0.3500    0.0010
   -0.1500   -0.3500    0.4500    0.0010
   -0.1500   -0.2500   -0.4500    0.0010
   -0.1500   -0.2500   -0.3500    0.0010
   -0.1500   -0.2500   -0.2500    0.0010
   -0.1500   -0.2500   -0.1500    0.0010
   -0.1500   -0.2500   -0.0500    0.0010
   -0.1500   -0.2500    0.0500    0.0010
   -0.1500   -0.2500    0.1500    0.0010
   -0.1500   -0.2500    0.2500    0.0010
   -0.1500   -0.2500    0.3500    0.0010
   -0.1500   -0.2500    0.4500    0.0010
   -0.1500   -0.1500   -0.4500    0.0010
   -0.1500   -0.1500   -0.3500    0.0010
   -0.1500   -0.1500   -0.2500    0.0010
   -0.1500   -0.1500   -0.1500    0.0010
   -0.1500   -0.1500   -0.0500    0.0010
   -0.1500   -0.1500    0.0500    0.0010
   -0.1500   -0.1500    0.1500    0.0010
   -0.1500   -0.1500    0.2500    0.0010
   -0.1500   -0.1500    0.3500    0.0010
   -0.1500   -0.1500    0.4500    0.0010
   -0.1500   -0.0500   -0.4500    0.0010
   -0.1500   -0.0500   -0.3500    0.0010
   -0.1500   -0.0500   -0.2500    0.0010
   -0.1500   -0.0500   -0.1500    0.0010
   -0.1500   -0.0500   -0.0500    0.0010
   -0.1500   -0.0500    0.0500    0.0010
   -0.1500   -0.0500    0.1500    0.0010
   -0.1500   -0.0500    0.2500    0.0010
   -0.1500   -0.0500    0.3500    0.0010
   -0.1500   -0.0500    0.4500    0.0010
   -0.1500    0.0500   -0.4500    0.0010
   -0.1500    0.0500   -0.3500    0.0010
   -0.1500    0.0500   -0.2500    0.0010
   -0.1500    0.0500   -0.1500    0.0010
   -0.1500    0.0500   -0.0500    0.0010
   -0.1500    0.0500    0.0500    0.0010
   -0.1500    0.0500    0.1500    0.0010
   -0.1500    0.0500    0.2500    0.0010
   -0.1500    0.0500    0.3500    0.0010
   -0.1500    0.0500    0.4500    0.0010
   -0.1500    0.1500   -0.4500    0.0010
   -0.1500    0.1500   -0.3500    0.0010
   -0.1500    0.1500   -0.2500    0.0010
   -0.1500    0.1500   -0.1500    0.0010
   -0.1500    0.1500   -0.0500    0.0010
   -0.1500    0.1500    0.0500    0.0010
   -0.1500    0.1500    0.1500    0.0010
   -0.1500    0.1500    0.2500    0.0010
   -0.1500    0.1500    0.3500    0.0010
   -0.1500    0.1500    0.4500    0.0010
   -0.1500    0.2500   -0.4500    0.0010
   -0.1500    0.2500   -0.3500    0.0010
   -0.1500    0.2500   -0.2500    0.0010
   -0.1500    0.2500   -0.1500    0.0010
   -0.1500    0.2500   -0.0500    0.0010
   -0.1500    0.2500    0.0500    0.0010
   -0.1500    0.2500    0.1500    0.0010
   -0.1500    0.2500    0.2500    0.0010
   -0.1500    0.2500    0.3500    0.0010
   -0.1500    0.2500    0.4500    0.0010
   -0.1500    0.3500   -0.4500    0.0010
   -0.1500    0.3500   -0.3500    0.0010
   -0.1500    0.3500   -0.2500    0.0010
   -0.1500    0.3500   -0.1500    0.0010
   -0.1500    0.3500   -0.0500    0.0010
   -0.1500    0.3500    0.0500    0.0010
   -0.1500    0.3500    0.1500    0.0010
   -0.1500    0.3500    0.2500    0.0010
   -0.1500    0.3500    0.3500    0.0010
   -0.1500    0.3500    0.4500    0.0010
   -0.1500    0.4500   -0.4500    0.0010
   -0.1500    0.4500   -0.3500    0.0010
   -0.1500    0.4500   -0.2500    0.0010
   -0.1500    0.4500   -0.1500    0.0010
   -0.1500    0.4500   -0.0500    0.0010
   -0.1500    0.4500    0.0500    0.0010
   -0.1500    0.4500    0.1500    0.0010
   -0.1500    0.4500    0.2500    0.0010
   -0.1500    0.4500    0.3500    0.0010
   -0.1500    0.4500    0.4500    0.0010
   -0.0500   -0.4500   -0.4500    0.0010
   -0.0500   -0.4500   -0.3500    0.0010
   -0.0500   -0.4500   -0.2500    0.0010
   -0.0500   -0.4500   -0.1500    0.0010
   -0.0500   -0.4500   -0.0500    0.0010
   -0.0500   -0.4500    0.0500    0.0010
   -0.0500   -0.4500    0.1500    0.0010
   -0.0500   -0.4500    0.2500    0.0010
   -0.0500   -0.4500    0.3500    0.0010
   -0.0500   -0.4500    0.4500    0.0010
   -0.0500   -0.3500   -0.4500    0.0010
   -0.0500   -0.3500   -0.3500    0.0010
   -0.0500   -0.3500   -0.2500    0.0010
   -0.0500   -0.3500   -0.1500    0.0010
   -0.0500   -0.3500   -0.0500    0.0010
   -0.0500   -0.3500    0.0500    0.0010
   -0.0500   -0.3500    0.1500    0.0010
   -0.0500   -0.3500    0.2500    0.0010
   -0.0500   -0.3500    0.3500    0.0010
   -0.0500   -0.3500    0.4500    0.0010
   -0.0500   -0.2500   -0.4500    0.0010
   -0.0500   -0.2500   -0.3500    0.0010
   -0.0500   -0.2500   -0.2500    0.0010
   -0.0500   -0.2500   -0.1500    0.0010
   -0.0500   -0.2500   -0.0500    0.0010
   -0.0500   -0.2500    0.0500    0.0010
   -0.0500   -0.2500    0.1500    0.0010
   -0.0500   -0.2500    0.2500    0.0010
   -0.0500   -0.2500    0.3500    0.0010
   -0.0500   -0.2500    0.4500    0.0010
   -0.0500   -0.1500   -0.4500    0.0010
   -0.0500   -0.1500   -0.3500    0.0010
   -0.0500   -0.1500   -0.2500    0.0010
   -0.0500   -0.1500   -0.1500    0.0010
   -0.0500   -0.1500   -0.0500    0.0010
   -0.0500   -0.1500    0.0500    0.0010
   -0.0500   -0.1500    0.1500    0.0010
   -0.0500   -0.1500    0.2500    0.0010
   -0.0500   -0.1500    0.3500    0.0010
   -0.0500   -0.1500    0.4500    0.0010
   -0.0500   -0.0500   -0.4500    0.0010
   -0.0500   -0.0500   -0.3500    0.0010
   -0.0500   -0.0500   -0.2500    0.0010
   -0.0500   -0.0500   -0.1500    0.0010
   -0.0500   -0.0500   -0.0500    0.0010
   -0.0500   -0.0500    0.0500    0.0010
   -0.0500   -0.0500    0.1500    0.0010
   -0.0500   -0.0500    0.2500    0.0010
   -0.0500   -0.0500    0.3500    0.0010
   -0.0500   -0.0500    0.4500    0.0010
   -0.0500    0.0500   -0.4500    0.0010
   -0.0500    0.0500   -0.3500    0.0010
   -0.0500    0.0500   -0.2500    0.0010
   -0.0500    0.0500   -0.1500    0.0010
   -0.0500    0.0500   -0.0500    0.0010
   -0.0500    0.0500    0.0500    0.0010
   -0.0500    0.0500    0.1500    0.0010
   -0.0500    0.0500    0.2500    0.0010
   -0.0500    0.0500    0.3500    0.0010
   -0.0500    0.0500    0.4500    0.0010
   -0.0500    0.1500   -0.4500    0.0010
   -0.0500    0.1500   -0.3500    0.0010
   -0.0500    0.1500   -0.2500    0.0010
   -0.0500    0.1500   -0.1500    0.0010
   -0.0500    0.1500   -0.0500    0.0010
   -0.0500    0.1500    0.0500    0.0010
   -0.0500    0.1500    0.1500    0.0010
   -0.0500    0.1500    0.2500    0.0010
   -0.0500    0.1500    0.3500    0.0010
   -0.0500    0.1500    0.4500    0.0010
   -0.0500    0.2500   -0.4500    0.0010
   -0.0500    0.2500   -0.3500    0.0010
   -0.0500    0.2500   -0.2500    0.0010
   -0.0500    0.2500   -0.1500    0.0010
   -0.0500    0.2500   -0.0500    0.0010
   -0.0500    0.2500    0.0500    0.0010
   -0.0500    0.2500    0.1500    0.0010
   -0.0500    0.2500    0.2500    0.0010
   -0.0500    0.2500    0.3500    0.0010
   -0.0500    0.2500    0.4500    0.0010
   -0.0500    0.3500   -0.4500    0.0010
   -0.0500    0.3500   -0.3500    0.0010
   -0.0500    0.3500   -0.2500    0.0010
   -0.0500    0.3500   -0.1500    0.0010
   -0.0500    0.3500   -0.0500    0.0010
   -0.0500    0.3500    0.0500    0.0010
   -0.0500    0.3500    0.1500    0.0010
   -0.0500    0.3500    0.2500    0.0010
   -0.0500    0.3500    0.3500    0.0010
   -0.0500    0.3500    0.4500    0.0010
   -0.0500    0.4500   -0.4500    0.0010
   -0.0500    0.4500   -0.3500    0.0010
   -0.0500    0.4500   -0.2500    0.0010
   -0.0500    0.4500   -0.1500    0.0010
   -0.0500    0.4500   -0.0500    0.0010
   -0.0500    0.4500    0.0500    0.0010
   -0.0500    0.4500    0.1500    0.0010
   -0.0500    0.4500    0.2500    0.0010
   -0.0500    0.4500    0.3500    0.0010
   -0.0500    0.4500    0.4500    0.0010
    0.0500   -0.4500   -0.4500    0.0010
    0.0500   -0.4500   -0.3500    0.0010
    0.0500   -0.4500   -0.2500    0.0010
    0.0500   -0.4500   -0.1500    0.0010
    0.0500   -0.4500   -0.0500    0.0010
    0.0500   -0.4500    0.0500    0.0010
    0.0500   -0.4500    0.1500    0.0010
    0.0500   -0.4500    0.2500    0.0010
    0.0500   -0.4500    0.3500    0.0010
    0.0500   -0.4500    0.4500    0.0010
    0.0500   -0.3500   -0.4500    0.0010
    0.0500   -0.3500   -0.3500    0.0010
    0.0500   -0.3500   -0.2500    0.0010
    0.0500   -0.3500   -0.1500    0.0010
    0.0500   -0.3500   -0.0500    0.0010
    0.0500   -0.3500    0.0500    0.0010
    0.0500   -0.3500    0.1500    0.0010
    0.0500   -0.3500    0.2500    0.0010
    0.0500   -0.3500    0.3500    0.0010
    0.0500   -0.3500    0.4500    0.0010
    0.0500   -0.2500   -0.4500    0.0010
    0.0500   -0.2500   -0.3500    0.0010
    0.0500   -0.2500   -0.2500    0.0010
    0.0500   -0.2500   -0.1500    0.0010
    0.0500   -0.2500   -0.0500    0.0010
    0.0500   -0.2500    0.0500    0.0010
    0.0500   -0.2500    0.1500    0.0010
    0.0500   -0.2500    0.2500    0.0010
    0.0500   -0.2500    0.3500    0.0010
    0.0500   -0.2500    0.4500    0.0010
    0.0500   -0.1500   -0.4500    0.0010
    0.0500   -0.1500   -0.3500    0.0010
    0.0500   -0.1500   -0.2500    0.0010
    0.0500   -0.1500   -0.1500    0.0010
    0.0500   -0.1500   -0.0500    0.0010
    0.0500   -0.1500    0.0500    0.0010
    0.0500   -0.1500    0.1500    0.0010
    0.0500   -0.1500    0.2500    0.0010
    0.0500   -0.1500    0.3500    0.0010
    0.0500   -0.1500    0.4500    0.0010
    0.0500   -0.0500   -0.4500    0.0010
    0.0500   -0.0500   -0.3500    0.0010
    0.0500   -0.0500   -0.2500    0.0010
    0.0500   -0.0500   -0.1500    0.0010
    0.0500   -0.0500   -0.0500    0.0010
    0.0500   -0.0500    0.0500    0.0010
    0.0500   -0.0500    0.1500    0.0010
    0.0500   -0.0500    0.2500    0.0010
    0.0500   -0.0500    0.3500    0.0010
    0.0500   -0.0500    0.4500    0.0010
    0.0500    0.0500   -0.4500    0.0010
    0.0500    0.0500   -0.3500    0.0010
    0.0500    0.0500   -0.2500    0.0010
    0.0500    0.0500   -0.1500    0.0010
    0.0500    0.0500   -0.0500    0.0010
    0.0500    0.0500    0.0500    0.0010
    0.0500    0.0500    0.1500    0.0010
    0.0500    0.0500    0.2500    0.0010
    0.0500    0.0500    0.3500    0.0010
    0.0500    0.0500    0.4500    0.0010
    0.0500    0.1500   -0.4500    0.0010
    0.0500    0.1500   -0.3500    0.0010
    0.0500    0.1500   -0.2500    0.0010
    0.0500    0.1500   -0.1500    0.0010
    0.0500    0.1500   -0.0500    0.0010
    0.0500    0.1500    0.0500    0.0010
    0.0500    0.1500    0.1500    0.0010
    0.0500    0.1500    0.2500    0.0010
    0.0500    0.1500    0.3500    0.0010
    0.0500    0.1500    0.4500    0.0010
    0.0500    0.2500   -0.4500    0.0010
    0.0500    0.2500   -0.3500    0.0010
    0.0500    0.2500   -0.2500    0.0010
    0.0500    0.2500   -0.1500    0.0010
    0.0500    0.2500   -0.0500    0.0010
    0.0500    0.2500    0.0500    0.0010
    0.0500    0.2500    0.1500    0.0010
    0.0500    0.2500    0.2500    0.0010
    0.0500    0.2500    0.3500    0.0010
    0.0500    0.2500    0.4500    0.0010
    0.0500    0.3500   -0.4500    0.0010
    0.0500    0.3500   -0.3500    0.0010
    0.0500    0.3500   -0.2500    0.0010
    0.0500    0.3500   -0.1500    0.0010
    0.0500    0.3500   -0.0500    0.0010
    0.0500    0.3500    0.0500    0.0010
    0.0500    0.3500    0.1500    0.0010
    0.0500    0.3500    0.2500    0.0010
    0.0500    0.3500    0.3500    0.0010
    0.0500    0.3500    0.4500    0.0010
    0.0500    0.4500   -0.4500    0.0010
    0.0500    0.4500   -0.3500    0.0010
    0.0500    0.4500   -0.2500    0.0010
    0.0500    0.4500   -0.1500    0.0010
    0.0500    0.4500   -0.0500    0.0010
    0.0500    0.4500    0.0500    0.0010
    0.0500    0.4500    0.1500    0.0010
    0.0500    0.4500    0.2500    0.0010
    0.0500    0.4500    0.3500    0.0010
    0.0500    0.4500    0.4500    0.0010
    0.1500   -0.4500   -0.4500    0.0010
    0.1500   -0.4500   -0.3500    0.0010
    0.1500   -0.4500   -0.2500    0.0010
    0.1500   -0.4500   -0.1500    0.0010
    0.1500   -0.4500   -0.0500    0.0010
    0.1500   -0.4500    0.0500    0.0010
    0.1500   -0.4500    0.1500    0.0010
    0.1500   -0.4500    0.2500    0.0010
    0.1500   -0.4500    0.3500    0.0010
    0.1500   -0.4500    0.4500    0.0010
    0.1500   -0.3500   -0.4500    0.0010
    0.1500   -0.3500   -0.3500    0.0010
    0.1500   -0.3500   -0.2500    0.0010
    0.1500   -0.3500   -0.1500    0.0010
    0.1500   -0.3500   -0.0500    0.0010
    0.1500   -0.3500    0.0500    0.0010
    0.1500   -0.3500    0.1500    0.0010
    0.1500   -0.3500    0.2500    0.0010
    0.1500   -0.3500    0.3500    0.0010
    0.1500   -0.3500    0.4500    0.0010
    0.1500   -0.2500   -0.4500    0.0010
    0.1500   -0.2500   -0.3500    0.0010
    0.1500   -0.2500   -0.2500    0.0010
    0.1500   -0.2500   -0.1500    0.0010
    0.1500   -0.2500   -0.0500    0.0010
    0.1500   -0.2500    0.0500    0.0010
    0.1500   -0.2500    0.1500    0.0010
    0.1500   -0.2500    0.2500    0.0010
    0.1500   -0.2500    0.3500    0.0010
    0.1500   -0.2500    0.4500    0.0010
    0.1500   -0.1500   -0.4500    0.0010
    0.1500   -0.1500   -0.3500    0.0010
    0.1500   -0.1500   -0.2500    0.0010
    0.1500   -0.1500   -0.1500    0.0010
    0.1500   -0.1500   -0.0500    0.0010
    0.1500   -0.1500    0.0500    0.0010
    0.1500   -0.1500    0.1500    0.0010
    0.1500   -0.1500    0.2500    0.0010
    0.1500   -0.1500    0.3500    0.0010
    0.1500   -0.1500    0.4500    0.0010
    0.1500   -0.0500   -0.4500    0.0010
    0.1500   -0.0500   -0.3500    0.0010
    0.1500   -0.0500   -0.2500    0.0010
    0.1500   -0.0500   -0.1500    0.0010
    0.1500   -0.0500   -0.0500    0.0010
    0.1500   -0.0500    0.0500    0.0010
    0.1500   -0.0500    0.1500    0.0010
    0.1500   -0.0500    0.2500    0.0010
    0.1500   -0.0500    0.3500    0.0010
    0.1500   -0.0500    0.4500    0.0010
    0.1500    0.0500   -0.4500    0.0010
    0.1500    0.0500   -0.3500    0.0010
    0.1500    0.0500   -0.2500    0.0010
    0.1500    0.0500   -0.1500    0.0010
    0.1500    0.0500   -0.0500    0.0010
    0.1500    0.0500    0.0500    0.0010
    0.1500    0.0500    0.1500    0.0010
    0.1500    0.0500    0.2500    0.0010
    0.1500    0.0500    0.3500    0.0010
    0.1500    0.0500    0.4500    0.0010
    0.1500    0.1500   -0.4500    0.0010
    0.1500    0.1500   -0.3500    0.0010
    0.1500    0.1500   -0.2500    0.0010
    0.1500    0.1500   -0.1500    0.0010
    0.1500    0.1500   -0.0500    0.0010
    0.1500    0.1500    0.0500    0.0010
    0.1500    0.1500    0.1500    0.0010
    0.1500    0.1500    0.2500    0.0010
    0.1500    0.1500    0.3500    0.0010
    0.1500    0.1500    0.4500    0.0010
    0.1500    0.2500   -0.4500    0.0010
    0.1500    0.2500   -0.3500    0.0010
    0.1500    0.2500   -0.2500    0.0010
    0.1500    0.2500   -0.1500    0.0010
    0.1500    0.2500   -0.0500    0.0010
    0.1500    0.2500    0.0500    0.0010
    0.1500    0.2500    0.1500    0.0010
    0.1500    0.2500    0.2500    0.0010
    0.1500    0.2500    0.3500    0.0010
    0.1500    0.2500    0.4500    0.0010
    0.1500    0.3500   -0.4500    0.0010
    0.1500    0.3500   -0.3500    0.0010
    0.1500    0.3500   -0.2500    0.0010
    0.1500    0.3500   -0.1500    0.0010
    0.1500    0.3500   -0.0500    0.0010
    0.1500    0.3500    0.0500    0.0010
    0.1500    0.3500    0.1500    0.0010
    0.1500    0.3500    0.2500    0.0010
    0.1500    0.3500    0.3500    0.0010
    0.1500    0.3500    0.4500    0.0010
    0.1500    0.4500   -0.4500    0.0010
    0.1500    0.4500   -0.3500    0.0010
    0.1500    0.4500   -0.2500    0.0010
    0.1500    0.4500   -0.1500    0.0010
    0.1500    0.4500   -0.0500    0.0010
    0.1500    0.4500    0.0500    0.0010
    0.1500    0.4500    0.1500    0.0010
    0.1500    0.4500    0.2500    0.0010
    0.1500    0.4500    0.3500    0.0010
    0.1500    0.4500    0.4500    0.0010
    0.2500   -0.4500   -0.4500    0.0010
    0.2500   -0.4500   -0.3500    0.0010
    0.2500   -0.4500   -0.2500    0.0010
    0.2500   -0.4500   -0.1500    0.0010
    0.2500   -0.4500   -0.0500    0.0010
    0.2500   -0.4500    0.0500    0.0010
    0.2500   -0.4500    0.1500    0.0010